(set-logic ALL)
(declare-fun var0 () String)
(assert (str.in_re var0 (re.++ (re.union (re.* (str.to_re "000")) (re.* (str.to_re "1"))) (re.++ (re.+ (re.+ (str.to_re "22"))) (re.++ (re.+ (re.+ (str.to_re "333"))) (re.++ (re.* (re.+ (str.to_re "44"))) (re.++ (re.* (re.+ (str.to_re "55"))) (re.++ (re.union (re.+ (str.to_re "66")) (re.+ (str.to_re "77"))) (re.++ (re.union (re.+ (str.to_re "8")) (re.+ (str.to_re "99"))) (re.++ (re.union (re.union (str.to_re "a") (str.to_re "bbb")) (re.union (str.to_re "c") (str.to_re "d"))) (re.++ (re.union (re.union (str.to_re "ee") (str.to_re "fff")) (re.union (str.to_re "gg") (str.to_re "hhh"))) (re.+ (re.union (str.to_re "iii") (str.to_re "j"))))))))))))))
(check-sat)